NAME: random95
TYPE: TSP
DIMENSION: 95
EDGE_WEIGHT_TYPE: EXPLICIT
EDGE_WEIGHT_FORMAT: FULL_MATRIX
EDGE_WEIGHT_SECTION
0 660 660 660 660 660 42 660 21 660 34 16 660 4 660 660 21 29 38 15 660 29 660 660 12 660 660 660 660 660 660 660 660 36 34 660 660 660 14 660 660 42 6 25 660 660 660 660 660 22 660 660 660 660 45 26 660 36 28 660 660 660 660 660 15 20 660 660 24 660 660 660 660 23 18 660 34 660 660 660 660 37 660 32 660 660 660 660 660 30 660 660 18 660 660
660 0 38 29 29 45 660 660 660 34 660 660 660 660 52 660 660 660 660 660 44 660 28 660 660 660 8 660 660 62 46 27 660 660 660 24 660 660 660 660 660 660 660 660 660 660 18 660 15 660 6 660 51 660 660 660 660 660 660 19 660 660 20 41 660 660 31 660 660 660 660 660 660 660 660 660 660 25 35 17 660 660 33 660 33 660 660 37 660 660 28 660 660 32 53
660 38 0 660 25 9 660 21 660 660 45 660 24 660 15 19 660 660 660 660 660 660 10 16 660 660 660 660 660 660 11 660 32 660 660 14 660 37 660 44 660 660 660 660 660 27 660 24 39 660 36 10 660 15 660 660 42 660 660 20 660 660 660 660 660 660 8 660 660 22 660 660 660 660 660 660 660 17 660 660 660 660 24 660 18 660 29 18 660 660 47 660 660 12 660
660 29 660 0 660 660 23 660 660 14 50 660 660 660 660 660 38 660 44 660 28 49 660 46 660 660 32 660 45 660 660 24 660 22 660 32 44 660 660 660 22 660 660 660 29 660 660 660 43 660 23 34 38 660 660 660 660 660 31 33 22 660 48 23 660 660 660 660 660 50 660 39 15 660 660 22 36 26 26 12 12 27 21 660 660 660 24 29 40 39 56 660 660 32 660
660 29 25 660 0 25 660 41 660 660 660 660 49 660 32 41 660 660 660 660 71 660 17 41 660 660 35 660 660 90 26 55 54 660 660 20 660 58 660 660 660 660 660 660 660 660 18 48 20 660 30 660 79 40 660 660 660 660 660 17 660 72 19 660 660 660 23 60 660 47 660 660 660 660 660 660 660 27 63 40 660 660 39 660 7 660 660 37 660 660 23 660 660 29 80
660 45 9 660 25 0 660 16 660 660 51 660 26 660 8 17 660 660 660 660 660 660 17 20 660 660 660 660 660 660 2 660 29 660 660 22 660 33 660 48 660 660 660 660 660 26 42 24 42 660 43 19 660 17 660 660 41 660 660 26 660 660 43 660 660 660 16 660 660 25 660 660 660 660 660 660 660 26 660 660 660 660 660 660 18 660 38 27 660 660 48 660 660 21 660
42 660 660 23 660 660 0 660 26 36 26 660 34 38 660 660 21 660 46 41 660 26 660 30 45 660 660 660 660 660 660 660 660 19 27 660 660 660 660 32 4 40 48 25 41 660 660 660 660 57 660 26 660 35 49 50 51 47 14 660 32 660 660 44 29 660 660 660 660 32 660 660 8 660 660 21 36 25 660 30 13 29 14 44 660 52 6 17 44 38 660 660 660 25 660
660 660 21 660 41 16 660 0 660 660 660 660 17 660 10 6 660 660 660 660 660 660 31 17 660 660 68 660 660 660 15 660 13 660 660 660 660 17 660 39 660 660 660 660 660 13 58 11 59 660 660 660 100 12 51 660 26 660 660 41 660 31 60 660 660 660 660 20 660 18 660 660 660 660 660 660 660 660 660 660 660 660 660 660 34 34 660 660 660 660 64 660 660 660 660
21 660 660 660 660 660 26 660 0 660 13 660 660 19 660 660 12 660 47 14 660 8 660 660 30 660 660 660 660 660 660 660 660 31 13 660 660 660 35 660 660 25 26 4 660 660 660 660 660 30 660 660 660 660 30 42 660 24 17 660 660 660 660 660 7 40 660 660 660 660 660 660 660 43 38 32 39 660 660 660 36 38 660 42 660 660 660 660 660 38 660 660 660 660 660
660 34 660 14 660 660 36 660 660 0 660 660 660 660 660 660 660 660 40 660 14 660 660 660 660 660 34 660 40 33 660 15 660 28 660 45 36 660 660 660 35 660 660 660 20 660 660 660 49 660 30 660 24 660 660 660 660 660 660 44 18 660 54 9 660 660 660 660 660 660 660 25 28 660 660 27 35 40 14 20 23 27 35 660 660 660 38 43 35 39 61 660 660 46 24
34 660 45 50 660 51 26 660 13 660 0 660 28 32 50 39 22 660 660 24 660 6 660 31 660 660 660 660 660 660 51 660 660 38 1 660 660 660 660 9 29 15 38 9 660 33 660 34 660 38 660 40 660 35 23 660 34 21 23 660 53 42 660 660 20 660 660 36 660 27 660 660 35 660 660 40 660 45 660 56 38 46 36 660 660 32 28 33 660 49 660 660 660 40 660
16 660 660 660 660 660 660 660 660 660 660 0 660 17 660 660 31 15 27 31 660 660 660 660 6 28 660 660 660 660 660 660 660 38 660 660 660 660 7 660 660 660 17 660 660 660 660 660 660 35 660 660 660 660 660 12 660 660 660 660 660 660 660 660 29 19 660 660 9 660 41 660 660 23 17 660 27 660 660 660 660 34 660 22 660 660 660 660 660 23 660 660 10 660 660
660 660 24 660 49 26 34 17 660 660 28 660 0 660 23 12 660 660 660 660 660 33 34 9 660 660 660 660 660 660 26 660 15 660 28 660 660 22 660 23 33 29 660 660 660 8 660 7 660 660 660 25 660 9 37 660 20 41 660 660 660 28 660 660 660 660 29 17 660 3 660 660 660 660 660 660 660 34 660 660 660 660 32 660 42 25 30 24 660 660 71 660 660 27 660
4 660 660 660 660 660 38 660 19 660 32 17 660 0 660 660 17 28 35 16 660 26 660 660 12 37 660 660 38 660 660 660 660 32 32 660 660 660 16 660 660 41 10 23 660 660 660 660 660 25 660 660 660 660 44 25 660 36 24 660 43 660 660 660 12 23 660 660 24 660 660 660 660 27 21 32 30 660 660 660 43 33 660 30 660 660 660 660 39 28 660 660 21 660 660
660 52 15 660 32 8 660 10 660 660 50 660 23 660 0 12 660 660 660 660 86 660 24 19 660 660 60 660 660 104 6 74 23 660 660 29 660 27 660 46 660 660 660 660 660 21 49 19 50 660 50 24 95 15 59 660 36 660 660 33 660 41 50 660 660 660 23 30 660 23 660 660 660 660 660 660 660 32 81 54 660 660 660 660 24 44 42 31 660 660 55 660 660 660 95
660 660 19 660 41 17 660 6 660 660 39 660 12 660 12 0 660 660 660 660 660 660 29 11 660 660 65 660 660 660 16 660 13 660 660 660 660 19 660 34 660 660 660 660 660 9 57 7 57 660 660 24 95 6 660 660 25 660 660 38 660 31 59 660 660 660 26 19 660 12 660 660 660 660 660 660 660 660 660 660 660 660 660 660 34 660 36 28 660 660 64 660 660 660 660
21 660 660 38 660 660 21 660 12 660 22 31 660 17 660 660 0 36 36 23 660 18 660 660 25 38 660 660 39 660 660 660 660 19 23 660 660 660 33 660 25 660 27 15 660 660 660 660 660 38 660 660 660 660 660 34 660 36 7 660 34 660 660 660 10 660 660 660 34 660 660 660 26 660 660 20 27 660 660 660 27 25 660 32 660 660 26 660 37 27 660 660 660 660 660
29 660 660 660 660 660 660 660 660 660 660 15 660 28 660 660 36 0 14 44 660 660 660 660 17 15 660 45 16 660 660 660 660 35 660 660 27 660 21 660 660 660 31 660 36 660 660 660 660 49 660 660 660 660 72 3 660 64 660 660 660 660 660 660 660 33 660 660 6 660 26 48 660 37 31 660 19 660 660 660 660 28 660 11 660 660 660 660 20 16 660 51 23 660 660
38 660 660 44 660 660 46 660 47 40 660 27 660 35 660 660 36 14 0 51 40 660 660 660 27 2 660 32 3 660 660 660 660 27 660 660 14 660 34 660 660 660 660 50 21 660 660 660 660 660 660 660 660 660 660 16 660 660 37 660 23 660 660 38 42 660 660 660 19 660 15 34 660 50 660 26 10 660 660 660 40 18 660 6 660 660 660 660 6 9 660 660 36 660 660
15 660 660 660 660 660 41 660 14 660 24 31 660 16 660 660 23 44 51 0 660 19 660 660 27 660 660 660 660 660 660 660 660 42 24 660 660 660 28 30 44 28 16 17 660 660 660 660 660 16 660 660 660 660 30 40 660 21 29 660 660 60 660 660 12 29 660 660 39 51 660 660 48 31 28 660 45 660 660 660 49 46 660 45 660 49 45 660 660 42 660 660 31 660 660
660 44 660 28 71 660 660 660 660 14 660 660 660 660 86 660 660 660 40 660 0 660 660 660 660 660 42 26 39 19 660 18 660 660 660 660 31 660 660 660 660 660 660 660 19 660 660 660 58 660 41 660 10 660 660 660 660 660 660 660 23 660 64 5 660 660 660 660 660 660 34 14 660 660 660 35 38 660 11 32 36 32 660 660 660 660 660 660 34 660 70 25 660 660 10
29 660 660 49 660 660 26 660 8 660 6 660 33 26 660 660 18 660 660 19 660 0 660 36 38 660 660 660 660 660 660 660 660 35 6 660 660 660 43 14 29 18 32 4 660 660 660 660 660 34 660 660 660 40 25 660 39 21 20 660 50 47 660 660 14 46 660 660 660 32 660 660 34 49 45 36 660 660 660 660 37 43 37 660 660 37 28 35 660 44 660 660 660 660 660
660 28 10 660 17 17 660 31 660 660 660 660 34 660 24 29 660 660 660 660 660 660 0 25 660 660 36 660 660 660 18 660 660 660 660 6 660 48 660 660 660 660 660 660 660 660 29 35 28 660 26 11 660 26 660 660 660 660 660 10 660 660 31 660 660 660 6 660 660 32 660 660 660 660 660 660 660 12 660 32 660 660 23 660 13 660 660 20 660 660 37 660 660 12 660
660 660 16 46 41 20 30 17 660 660 31 660 9 660 19 11 660 660 660 660 660 36 25 0 660 660 660 660 660 660 20 660 21 660 31 27 660 28 660 28 28 36 660 660 660 14 660 12 660 660 46 17 660 5 660 660 28 660 660 33 660 660 660 660 660 660 20 660 660 6 660 660 35 660 660 660 660 26 660 46 660 660 25 660 34 34 25 17 660 660 62 660 660 18 660
12 660 660 660 660 660 45 660 30 660 660 6 660 12 660 660 25 17 27 27 660 38 660 660 0 29 660 660 30 660 660 660 660 34 660 660 660 660 9 660 660 660 14 34 660 660 660 660 660 32 660 660 660 660 660 14 660 48 31 660 41 660 660 660 24 21 660 660 12 660 42 660 660 25 18 34 26 660 660 660 47 32 660 22 660 660 660 660 32 22 660 660 13 660 660
660 660 660 660 660 660 660 660 660 660 660 28 660 37 660 660 38 15 2 660 660 660 660 660 29 0 660 31 2 660 660 660 660 29 660 660 12 660 35 660 660 660 660 660 22 660 660 660 660 61 660 660 660 660 660 17 660 660 660 660 24 660 660 660 660 47 660 660 20 660 13 33 660 51 45 660 12 660 660 660 660 20 660 7 660 660 660 660 6 12 660 37 37 660 660
660 8 660 32 35 660 660 68 660 34 660 660 660 660 60 65 660 660 660 660 42 660 36 660 660 660 0 660 660 59 54 23 660 660 660 33 660 84 660 660 47 660 660 660 54 660 21 660 18 660 13 660 48 61 660 660 660 660 660 27 51 660 22 40 660 660 660 660 660 660 660 55 43 660 660 660 660 33 31 21 42 660 40 660 40 660 47 44 660 660 29 66 660 40 49
660 660 660 660 660 660 660 660 660 660 660 660 660 660 660 660 660 45 32 660 26 660 660 660 660 31 660 0 29 13 660 660 660 660 660 660 18 660 660 660 660 660 660 660 23 660 660 660 660 660 660 660 22 660 660 47 660 660 660 660 32 660 660 29 660 660 660 660 50 660 18 13 660 82 660 660 37 660 37 660 660 38 660 38 660 660 660 660 28 660 660 6 67 660 20
660 660 660 45 660 660 660 660 660 40 660 660 660 38 660 660 39 16 3 660 39 660 660 660 30 2 660 29 0 39 660 660 660 29 660 660 11 660 660 660 660 660 660 660 21 660 660 660 660 660 660 660 660 660 660 19 660 660 660 660 23 660 660 37 660 660 660 660 21 660 12 32 660 53 660 28 12 660 660 660 42 20 660 9 660 660 660 660 5 12 660 35 39 660 40
660 62 660 660 90 660 660 660 660 33 660 660 660 660 104 660 660 660 660 660 19 660 660 660 660 660 59 13 39 0 660 36 660 660 660 660 29 660 660 660 660 660 660 660 26 660 660 660 76 660 60 660 11 660 660 660 660 660 660 660 34 660 81 23 660 660 660 660 660 660 30 9 660 660 660 660 660 660 28 52 660 660 660 660 660 660 660 660 36 660 87 8 660 660 10
660 46 11 660 26 2 660 15 660 660 51 660 26 660 6 16 660 660 660 660 660 660 18 20 660 660 54 660 660 660 0 660 28 660 660 24 660 32 660 48 660 660 660 660 660 25 43 23 44 660 45 20 90 16 660 660 40 660 660 28 660 46 45 660 660 660 18 34 660 25 660 660 660 660 660 660 660 28 660 660 660 660 660 660 19 660 39 28 660 660 49 660 660 660 660
660 27 660 24 55 660 660 660 660 15 660 660 660 660 74 660 660 660 660 660 18 660 660 660 660 660 23 660 660 36 660 0 660 660 660 45 660 660 660 660 45 660 660 660 33 660 44 660 41 660 25 660 24 660 660 660 660 660 660 42 33 660 46 17 660 660 660 660 660 660 660 32 38 660 660 41 660 42 8 21 35 42 42 660 660 660 47 49 49 660 52 660 660 49 26
660 660 32 660 54 29 660 13 660 660 660 660 15 660 23 13 660 660 660 660 660 660 660 21 660 660 660 660 660 660 28 660 0 660 660 660 660 7 660 31 660 660 660 660 660 7 660 9 660 660 660 660 660 18 40 660 13 660 660 660 660 18 660 660 660 660 660 7 660 17 660 660 660 660 660 660 660 660 660 660 660 660 660 660 47 21 660 660 660 660 77 660 660 660 660
36 660 660 22 660 660 19 660 31 28 38 38 660 32 660 660 19 35 27 42 660 35 660 660 34 29 660 660 29 660 660 660 660 0 39 660 33 660 42 46 22 660 660 33 24 660 660 660 660 660 660 660 660 660 660 34 660 55 15 660 15 660 660 32 29 660 660 660 35 51 660 660 18 660 660 2 17 660 660 33 14 10 29 26 660 660 25 35 25 20 660 660 660 660 660
34 660 660 660 660 660 27 660 13 660 1 660 28 32 660 660 23 660 660 24 660 6 660 31 660 660 660 660 660 660 660 660 660 39 0 660 660 660 660 9 29 14 38 9 660 33 660 34 660 38 660 660 660 35 22 660 34 20 24 660 660 41 660 660 20 52 660 36 660 27 660 660 35 54 660 660 660 660 660 660 39 660 36 660 660 31 28 33 660 660 660 660 660 660 660
660 24 14 32 20 22 660 660 660 45 660 660 660 660 29 660 660 660 660 660 660 660 6 27 660 660 33 660 660 660 24 45 660 660 660 0 660 660 660 660 28 660 660 660 660 660 29 660 27 660 21 10 660 28 660 660 660 660 660 7 660 660 31 660 660 660 7 660 660 33 660 660 30 660 660 660 660 7 660 26 660 660 19 660 18 660 27 17 660 660 38 660 660 10 660
660 660 660 44 660 660 660 660 660 36 660 660 660 660 660 660 660 27 14 660 31 660 660 660 660 12 660 18 11 29 660 660 660 33 660 660 0 660 660 660 660 660 660 660 16 660 660 660 660 660 660 660 33 660 660 29 660 660 660 660 22 660 660 31 660 660 660 660 32 660 4 22 660 64 660 32 20 660 42 660 44 24 660 19 660 660 660 660 10 21 660 25 49 660 31
660 660 37 660 58 33 660 17 660 660 660 660 22 660 27 19 660 660 660 660 660 660 48 28 660 660 84 660 660 660 32 660 7 660 660 660 660 0 660 37 660 39 660 660 660 14 75 16 75 77 660 660 112 24 43 660 14 51 660 57 660 15 77 660 660 660 660 9 660 24 660 660 660 660 660 660 660 660 660 660 660 660 660 660 51 22 660 660 660 660 81 660 660 660 660
14 660 660 660 660 660 660 660 35 660 660 7 660 16 660 660 33 21 34 28 660 43 660 660 9 35 660 660 660 660 660 660 660 42 660 660 660 660 0 660 660 660 13 39 660 660 660 660 660 29 660 660 660 660 58 18 660 49 660 660 660 660 660 660 29 13 660 660 16 660 47 660 660 17 10 660 33 660 660 660 660 40 660 28 660 660 660 660 660 30 660 660 5 660 660
660 660 44 660 660 48 32 39 660 660 9 660 23 660 46 34 660 660 660 30 660 14 660 28 660 660 660 660 660 660 48 660 31 46 9 660 660 37 660 0 34 9 660 18 660 27 660 28 660 42 660 41 660 31 18 660 25 19 32 660 660 33 660 660 660 660 660 28 660 23 660 660 41 660 660 660 660 47 660 660 45 660 39 660 660 23 32 34 660 660 660 660 660 41 660
660 660 660 22 660 660 4 660 660 35 29 660 33 660 660 660 25 660 660 44 660 29 660 28 660 660 47 660 660 660 660 45 660 22 29 28 660 660 660 34 0 660 660 29 660 660 660 660 660 660 34 23 660 33 660 660 660 49 18 33 34 660 660 660 660 660 660 660 660 30 660 660 7 660 660 23 660 21 660 27 12 31 10 660 660 660 3 14 660 41 660 660 660 21 660
42 660 660 660 660 660 40 660 25 660 15 660 29 41 660 660 660 660 660 28 660 18 660 36 660 660 660 660 660 660 660 660 660 660 14 660 660 39 660 9 660 0 44 21 660 32 660 34 660 38 660 660 660 38 9 660 26 12 38 660 660 32 660 660 30 56 660 30 660 30 660 660 660 58 660 660 660 660 660 660 660 660 660 660 660 21 41 43 660 660 660 660 660 660 660
6 660 660 660 660 660 48 660 26 660 38 17 660 10 660 660 27 31 660 16 660 32 660 660 14 660 660 660 660 660 660 660 660 660 38 660 660 660 13 660 660 44 0 29 660 660 660 660 660 18 660 660 660 660 45 28 660 37 34 660 660 76 660 660 20 14 660 660 26 660 660 660 660 17 13 660 660 660 660 660 660 660 660 660 660 65 660 660 660 35 660 660 16 660 660
25 660 660 660 660 660 25 660 4 660 9 660 660 23 660 660 15 660 50 17 660 4 660 660 34 660 660 660 660 660 660 660 660 33 9 660 660 660 39 18 29 21 29 0 660 660 660 660 660 33 660 660 660 660 28 45 660 23 18 660 660 660 660 660 11 44 660 660 660 35 660 660 33 46 42 34 42 660 660 660 36 40 660 46 660 660 29 660 660 41 660 660 660 660 660
660 660 660 29 660 660 41 660 660 20 660 660 660 660 660 660 660 36 21 660 19 660 660 660 660 22 54 23 21 26 660 33 660 24 660 660 16 660 660 660 660 660 660 660 0 660 660 660 660 660 660 660 24 660 660 660 660 660 660 660 9 660 660 17 660 660 660 660 660 660 19 17 36 660 660 23 19 660 28 38 31 16 47 25 660 660 660 660 16 23 82 27 660 660 23
660 660 27 660 660 26 660 13 660 660 33 660 8 660 21 9 660 660 660 660 660 660 660 14 660 660 660 660 660 660 25 660 7 660 33 660 660 14 660 27 660 32 660 660 660 0 660 3 660 660 660 660 660 11 38 660 16 660 660 660 660 23 660 660 660 660 660 11 660 10 660 660 660 660 660 660 660 660 660 660 660 660 660 660 660 23 37 31 660 660 660 660 660 660 660
660 18 660 660 18 42 660 58 660 660 660 660 660 660 49 57 660 660 660 660 660 660 29 660 660 660 21 660 660 660 43 44 660 660 660 29 660 75 660 660 660 660 660 660 660 660 0 660 3 660 23 660 68 55 660 660 660 660 660 22 660 660 3 660 660 660 660 660 660 660 660 660 660 660 660 660 660 33 52 35 660 660 660 660 25 660 660 660 660 660 10 660 660 660 660
660 660 24 660 48 24 660 11 660 660 34 660 7 660 19 7 660 660 660 660 660 660 35 12 660 660 660 660 660 660 23 660 9 660 34 660 660 16 660 28 660 34 660 660 660 3 660 0 660 660 660 28 660 9 660 660 18 660 660 660 660 25 660 660 660 660 30 13 660 9 660 660 660 660 660 660 660 660 660 660 660 660 660 660 41 25 36 29 660 660 70 660 660 660 660
660 15 39 43 20 42 660 59 660 49 660 660 660 660 50 57 660 660 660 660 58 660 28 660 660 660 18 660 660 76 44 41 660 660 660 27 660 75 660 660 660 660 660 660 660 660 3 660 0 660 20 660 65 54 660 660 660 660 660 21 660 660 6 56 660 660 33 660 660 660 660 660 660 660 660 660 660 32 49 32 660 660 42 660 26 660 660 44 660 660 13 660 660 37 67
22 660 660 660 660 660 57 660 30 660 38 35 660 25 660 660 38 49 660 16 660 34 660 660 32 61 660 660 660 660 660 660 660 660 38 660 660 77 29 42 660 38 18 33 660 660 660 660 660 0 660 660 660 660 36 46 63 27 45 660 660 68 660 660 28 22 660 68 44 660 74 660 660 22 23 660 660 660 660 660 660 660 660 54 660 57 660 660 660 52 660 660 30 660 660
660 6 36 23 30 43 660 660 660 30 660 660 660 660 50 660 660 660 660 660 41 660 26 46 660 660 13 660 660 60 45 25 660 660 660 21 660 660 660 660 34 660 660 660 660 660 23 660 20 660 0 30 49 660 660 660 660 660 660 17 44 660 26 38 660 660 28 660 660 52 660 660 31 660 660 660 660 21 33 11 31 660 27 660 33 660 35 32 660 660 33 660 660 28 50
660 660 10 34 660 19 26 660 660 660 40 660 25 660 24 24 660 660 660 660 660 660 11 17 660 660 660 660 660 660 20 660 660 660 660 10 660 660 660 41 23 660 660 660 660 660 660 28 660 660 30 0 660 19 660 660 660 660 660 17 660 660 660 660 660 660 6 660 660 23 660 660 26 660 660 660 660 9 660 31 660 660 15 660 24 660 20 9 660 660 660 660 660 2 660
660 51 660 38 79 660 660 100 660 24 660 660 660 660 95 95 660 660 660 660 10 660 660 660 660 660 48 22 660 11 90 24 660 660 660 660 33 112 660 660 660 660 660 660 24 660 68 660 65 660 49 660 0 89 660 660 660 660 660 65 31 660 70 15 660 660 660 660 660 660 660 11 660 660 660 660 660 63 17 41 660 660 59 660 82 660 660 660 38 660 76 19 660 660 2
660 660 15 660 40 17 35 12 660 660 35 660 9 660 15 6 660 660 660 660 660 40 26 5 660 660 61 660 660 660 16 660 18 660 35 28 660 24 660 31 33 38 660 660 660 11 55 9 54 660 660 19 89 0 660 660 27 660 660 34 660 34 56 660 660 660 21 22 660 8 660 660 660 660 660 660 660 28 660 660 660 660 30 660 33 34 30 22 660 660 62 660 660 21 660
45 660 660 660 660 660 49 51 30 660 23 660 37 44 59 660 660 72 660 30 660 25 660 660 660 660 660 660 660 660 660 660 40 660 22 660 660 43 58 18 660 9 45 28 660 38 660 660 660 36 660 660 660 660 0 660 29 9 45 660 660 33 660 660 35 56 660 35 660 38 660 660 660 57 56 660 660 660 660 660 660 660 660 660 660 22 660 660 660 660 660 660 61 660 660
26 660 660 660 660 660 50 660 42 660 660 12 660 25 660 660 34 3 16 40 660 660 660 660 14 17 660 47 19 660 660 660 660 34 660 660 29 660 18 660 660 660 28 45 660 660 660 660 660 46 660 660 660 660 660 0 660 660 38 660 36 660 660 660 35 30 660 660 3 660 29 660 660 34 28 33 19 660 660 660 48 28 660 12 660 660 660 660 22 16 660 660 20 660 660
660 660 42 660 660 41 51 26 660 660 34 660 20 660 36 25 660 660 660 660 660 39 660 28 660 660 660 660 660 660 40 660 13 660 34 660 660 14 660 25 660 26 660 660 660 16 660 18 660 63 660 660 660 27 29 660 0 37 660 660 660 9 660 660 660 660 660 7 660 23 660 660 660 660 660 660 660 660 660 660 660 660 660 660 660 8 48 44 660 660 660 660 660 660 660
36 660 660 660 660 660 47 660 24 660 21 660 41 36 660 660 36 64 660 21 660 21 660 660 48 660 660 660 660 660 660 660 660 55 20 660 660 51 49 19 49 12 37 23 660 660 660 660 660 27 660 660 660 660 9 660 37 0 40 660 660 41 660 660 28 47 660 42 660 42 660 660 55 48 47 660 660 660 660 660 58 660 660 660 660 30 48 660 660 61 660 660 52 660 660
28 660 660 31 660 660 14 660 17 660 23 660 660 24 660 660 7 660 37 29 660 20 660 660 31 660 660 660 660 660 660 660 660 15 24 660 660 660 660 32 18 38 34 18 660 660 660 660 660 45 660 660 660 660 45 38 660 40 0 660 30 660 660 660 17 660 660 660 660 40 660 660 19 660 660 17 28 660 660 660 20 23 27 34 660 660 20 30 37 28 660 660 660 660 660
660 19 20 33 17 26 660 41 660 44 660 660 660 660 33 38 660 660 660 660 660 660 10 33 660 660 27 660 660 660 28 42 660 660 660 7 660 57 660 660 33 660 660 660 660 660 22 660 21 660 17 17 65 34 660 660 660 660 660 0 660 660 24 660 660 660 13 660 660 40 660 660 33 660 660 660 660 12 50 24 660 660 23 660 17 660 32 24 660 660 31 660 660 16 660
660 660 660 22 660 660 32 660 660 18 53 660 660 43 660 660 34 660 23 660 23 50 660 660 41 24 51 32 23 34 660 33 660 15 660 660 22 660 660 660 34 660 660 660 9 660 660 660 660 660 44 660 31 660 660 36 660 660 30 660 0 660 660 19 660 660 660 660 660 660 26 25 27 660 660 14 16 47 30 33 22 10 38 25 660 660 37 46 18 20 660 36 660 660 29
660 660 660 660 72 660 660 31 660 660 42 660 28 660 41 31 660 660 660 60 660 47 660 660 660 660 660 660 660 660 46 660 18 660 41 660 660 15 660 33 660 32 76 660 660 23 660 25 660 68 660 660 660 34 33 660 9 41 660 660 660 0 660 660 660 88 660 12 660 31 660 660 660 89 660 660 660 660 660 660 660 660 660 660 65 11 660 660 660 660 95 660 660 660 660
660 20 660 48 19 43 660 60 660 54 660 660 660 660 50 59 660 660 660 660 64 660 31 660 660 660 22 660 660 81 45 46 660 660 660 31 660 77 660 660 660 660 660 660 660 660 3 660 6 660 26 660 70 56 660 660 660 660 660 24 660 660 0 61 660 660 660 660 660 660 660 660 660 660 660 660 660 36 54 37 660 660 46 660 26 660 660 660 660 660 8 660 660 660 72
660 41 660 23 660 660 44 660 660 9 660 660 660 660 660 660 660 660 38 660 5 660 660 660 660 660 40 29 37 23 660 17 660 32 660 660 31 660 660 660 660 660 660 660 17 660 660 660 56 660 38 660 15 660 660 660 660 660 660 660 19 660 61 0 660 660 660 660 660 660 34 17 36 660 660 31 35 49 11 28 31 29 44 660 660 660 660 660 32 39 68 29 660 660 15
15 660 660 660 660 660 29 660 7 660 20 29 660 12 660 660 10 660 42 12 660 14 660 660 24 660 660 660 660 660 660 660 660 29 20 660 660 660 29 660 660 30 20 11 660 660 660 660 660 28 660 660 660 660 35 35 660 28 17 660 660 660 660 660 0 34 660 660 35 660 660 660 660 37 32 31 35 660 660 660 37 35 660 37 660 660 660 660 660 33 660 660 660 660 660
20 660 660 660 660 660 660 660 40 660 660 19 660 23 660 660 660 33 660 29 660 46 660 660 21 47 660 660 660 660 660 660 660 660 52 660 660 660 13 660 660 56 14 44 660 660 660 660 660 22 660 660 660 660 56 30 660 47 660 660 660 88 660 660 34 0 660 660 28 660 60 660 660 4 2 660 660 660 660 660 660 660 660 41 660 77 660 660 660 660 660 660 11 660 660
660 31 8 660 23 16 660 660 660 660 660 660 29 660 23 26 660 660 660 660 660 660 6 20 660 660 660 660 660 660 18 660 660 660 660 7 660 660 660 660 660 660 660 660 660 660 660 30 33 660 28 6 660 21 660 660 660 660 660 13 660 660 660 660 660 660 0 660 660 27 660 660 660 660 660 660 660 10 660 31 660 660 19 660 18 660 26 15 660 660 660 660 660 6 660
660 660 660 660 60 660 660 20 660 660 36 660 17 660 30 19 660 660 660 660 660 660 660 660 660 660 660 660 660 660 34 660 7 660 36 660 660 9 660 28 660 30 660 660 660 11 660 13 660 68 660 660 660 22 35 660 7 42 660 660 660 12 660 660 660 660 660 0 660 20 660 660 660 660 660 660 660 660 660 660 660 660 660 660 53 15 660 660 660 660 83 660 660 660 660
24 660 660 660 660 660 660 660 660 660 660 9 660 24 660 660 34 6 19 39 660 660 660 660 12 20 660 50 21 660 660 660 660 35 660 660 32 660 16 660 660 660 26 660 660 660 660 660 660 44 660 660 660 660 660 3 660 660 660 660 660 660 660 660 35 28 660 660 0 660 32 660 660 32 26 660 22 660 660 660 660 30 660 14 660 660 660 660 660 18 660 660 17 660 660
660 660 22 50 47 25 32 18 660 660 27 660 3 660 23 12 660 660 660 51 660 32 32 6 660 660 660 660 660 660 25 660 17 51 27 33 660 24 660 23 30 30 660 35 660 10 660 9 660 660 52 23 660 8 38 660 23 42 40 40 660 31 660 660 660 660 27 20 660 0 660 660 37 660 660 660 660 31 660 51 43 660 29 660 40 28 27 22 660 660 69 660 660 24 660
660 660 660 660 660 660 660 660 660 660 660 41 660 660 660 660 660 26 15 660 34 660 660 660 42 13 660 18 12 30 660 660 660 660 660 660 4 660 47 660 660 660 660 660 19 660 660 660 660 74 660 660 660 660 660 29 660 660 660 660 26 660 660 34 660 60 660 660 32 660 0 24 660 63 57 660 22 660 660 660 660 27 660 20 660 660 660 660 12 23 660 25 49 660 33
660 660 660 39 660 660 660 660 660 25 660 660 660 660 660 660 660 48 34 660 14 660 660 660 660 33 55 13 32 9 660 32 660 660 660 660 22 660 660 660 660 660 660 660 17 660 660 660 660 660 660 660 11 660 660 660 660 660 660 660 25 660 660 17 660 660 660 660 660 660 24 0 660 660 660 39 35 660 24 660 44 33 660 660 660 660 660 660 28 660 84 12 660 660 9
660 660 660 15 660 660 8 660 660 28 35 660 660 660 660 660 26 660 660 48 660 34 660 35 660 660 43 660 660 660 660 38 660 18 35 30 660 660 660 41 7 660 660 33 36 660 660 660 660 660 31 26 660 660 660 660 660 55 19 33 27 660 660 36 660 660 660 660 660 37 660 660 0 660 660 19 660 23 41 22 5 27 12 660 660 660 10 18 42 37 660 660 660 25 660
23 660 660 660 660 660 660 660 43 660 660 23 660 27 660 660 660 37 50 31 660 49 660 660 25 51 660 82 53 660 660 660 660 660 54 660 64 660 17 660 660 58 17 46 660 660 660 660 660 22 660 660 660 660 57 34 660 48 660 660 660 89 660 660 37 4 660 660 32 660 63 660 660 0 7 660 660 660 660 660 660 660 660 45 660 78 660 660 660 46 660 660 14 660 660
18 660 660 660 660 660 660 660 38 660 660 17 660 21 660 660 660 31 660 28 660 45 660 660 18 45 660 660 660 660 660 660 660 660 660 660 660 660 10 660 660 660 13 42 660 660 660 660 660 23 660 660 660 660 56 28 660 47 660 660 660 660 660 660 32 2 660 660 26 660 57 660 660 7 0 660 660 660 660 660 660 660 660 39 660 660 660 660 660 40 660 660 9 660 660
660 660 660 22 660 660 21 660 32 27 40 660 660 32 660 660 20 660 26 660 35 36 660 660 34 660 660 660 28 660 660 41 660 2 660 660 32 660 660 660 23 660 660 34 23 660 660 660 660 660 660 660 660 660 660 33 660 660 17 660 14 660 660 31 31 660 660 660 660 660 660 39 19 660 660 0 16 660 40 34 15 8 30 25 660 660 26 660 24 19 660 660 660 660 660
34 660 660 36 660 660 36 660 39 35 660 27 660 30 660 660 27 19 10 45 38 660 660 660 26 12 660 37 12 660 660 660 660 17 660 660 20 660 33 660 660 660 660 42 19 660 660 660 660 660 660 660 660 660 660 19 660 660 28 660 16 660 660 35 35 660 660 660 22 660 22 35 660 660 660 16 0 660 660 660 31 9 660 9 660 660 660 660 10 4 660 660 660 660 660
660 25 17 26 27 26 25 660 660 40 45 660 34 660 32 660 660 660 660 660 660 660 12 26 660 660 33 660 660 660 28 42 660 660 660 7 660 660 660 47 21 660 660 660 660 660 33 660 32 660 21 9 63 28 660 660 660 660 660 12 47 660 36 49 660 660 10 660 660 31 660 660 23 660 660 660 660 0 48 22 26 660 12 660 25 660 20 12 660 660 43 660 660 7 660
660 35 660 26 63 660 660 660 660 14 660 660 660 660 81 660 660 660 660 660 11 660 660 660 660 660 31 37 660 28 660 8 660 660 660 660 42 660 660 660 660 660 660 660 28 660 52 660 49 660 33 660 17 660 660 660 660 660 660 50 30 660 54 11 660 660 660 660 660 660 660 24 41 660 660 40 660 48 0 26 37 39 47 660 660 660 660 660 44 660 60 35 660 660 18
660 17 660 12 40 660 30 660 660 20 56 660 660 660 54 660 660 660 660 660 32 660 32 46 660 660 21 660 660 52 660 21 660 33 660 26 660 660 660 660 27 660 660 660 38 660 35 660 32 660 11 31 41 660 660 660 660 660 660 24 33 660 37 28 660 660 31 660 660 51 660 660 22 660 660 34 660 22 26 0 21 38 22 660 41 660 29 29 51 660 45 660 660 29 42
660 660 660 12 660 660 13 660 36 23 38 660 660 43 660 660 27 660 40 49 36 37 660 660 47 660 42 660 42 660 660 35 660 14 39 660 44 660 660 45 12 660 660 36 31 660 660 660 660 660 31 660 660 660 660 48 660 58 20 660 22 660 660 31 37 660 660 660 660 43 660 44 5 660 660 15 31 26 37 21 0 22 16 40 660 660 15 24 37 34 660 660 660 660 660
37 660 660 27 660 660 29 660 38 27 46 34 660 33 660 660 25 28 18 46 32 43 660 660 32 20 660 38 20 660 660 42 660 10 660 660 24 660 40 660 31 660 660 40 16 660 660 660 660 660 660 660 660 660 660 28 660 660 23 660 10 660 660 29 35 660 660 660 30 660 27 33 27 660 660 8 9 660 39 38 22 0 38 18 660 660 34 660 16 12 660 660 660 660 660
660 33 24 21 39 660 14 660 660 35 36 660 32 660 660 660 660 660 660 660 660 37 23 25 660 660 40 660 660 660 660 42 660 29 36 19 660 660 660 39 10 660 660 660 47 660 660 660 42 660 27 15 59 30 660 660 660 660 27 23 38 660 46 44 660 660 19 660 660 29 660 660 12 660 660 30 660 12 47 22 16 38 0 660 36 660 9 8 54 660 54 660 660 13 660
32 660 660 660 660 660 44 660 42 660 660 22 660 30 660 660 32 11 6 45 660 660 660 660 22 7 660 38 9 660 660 660 660 26 660 660 19 660 28 660 660 660 660 46 25 660 660 660 660 54 660 660 660 660 660 12 660 660 34 660 25 660 660 660 37 41 660 660 14 660 20 660 660 45 39 25 9 660 660 660 40 18 660 0 660 660 660 660 11 6 660 660 31 660 660
660 33 18 660 7 18 660 34 660 660 660 660 42 660 24 34 660 660 660 660 660 660 13 34 660 660 40 660 660 660 19 660 47 660 660 18 660 51 660 660 660 660 660 660 660 660 25 41 26 660 33 24 82 33 660 660 660 660 660 17 660 65 26 660 660 660 18 53 660 40 660 660 660 660 660 660 660 25 660 41 660 660 36 660 0 660 660 33 660 660 30 660 660 25 660
660 660 660 660 660 660 52 34 660 660 32 660 25 660 44 660 660 660 660 49 660 37 660 34 660 660 660 660 660 660 660 660 21 660 31 660 660 22 660 23 660 21 65 660 660 23 660 25 660 57 660 660 660 34 22 660 8 30 660 660 660 11 660 660 660 77 660 15 660 28 660 660 660 78 660 660 660 660 660 660 660 660 660 660 660 0 50 48 660 660 660 660 660 660 660
660 660 29 24 660 38 6 660 660 38 28 660 30 660 42 36 26 660 660 45 660 28 660 25 660 660 47 660 660 660 39 47 660 25 28 27 660 660 660 32 3 41 660 29 660 37 660 36 660 660 35 20 660 30 660 660 48 48 20 32 37 660 660 660 660 660 26 660 660 27 660 660 10 660 660 26 660 20 660 29 15 34 9 660 660 50 0 11 660 44 660 660 660 19 660
660 37 18 29 37 27 17 660 660 43 33 660 24 660 31 28 660 660 660 660 660 35 20 17 660 660 44 660 660 660 28 49 660 35 33 17 660 660 660 34 14 43 660 660 660 31 660 29 44 660 32 9 660 22 660 660 44 660 30 24 46 660 660 660 660 660 15 660 660 22 660 660 18 660 660 660 660 12 660 29 24 660 8 660 33 48 11 0 660 660 660 660 660 9 660
660 660 660 40 660 660 44 660 660 35 660 660 660 39 660 660 37 20 6 660 34 660 660 660 32 6 660 28 5 36 660 49 660 25 660 660 10 660 660 660 660 660 660 660 16 660 660 660 660 660 660 660 38 660 660 22 660 660 37 660 18 660 660 32 660 660 660 660 660 660 12 28 42 660 660 24 10 660 44 51 37 16 54 11 660 660 660 660 0 11 660 34 660 660 36
30 660 660 39 660 660 38 660 38 39 49 23 660 28 660 660 27 16 9 42 660 44 660 660 22 12 660 660 12 660 660 660 660 20 660 660 21 660 30 660 41 660 35 41 23 660 660 660 660 52 660 660 660 660 660 16 660 61 28 660 20 660 660 39 33 660 660 660 18 660 23 660 37 46 40 19 4 660 660 660 34 12 660 6 660 660 44 660 11 0 660 660 33 660 660
660 28 47 56 23 48 660 64 660 61 660 660 71 660 55 64 660 660 660 660 70 660 37 62 660 660 29 660 660 87 49 52 77 660 660 38 660 81 660 660 660 660 660 660 82 660 10 70 13 660 33 660 76 62 660 660 660 660 660 31 660 95 8 68 660 660 660 83 660 69 660 84 660 660 660 660 660 43 60 45 660 660 54 660 30 660 660 660 660 660 0 95 660 660 78
660 660 660 660 660 660 660 660 660 660 660 660 660 660 660 660 660 51 660 660 25 660 660 660 660 37 66 6 35 8 660 660 660 660 660 660 25 660 660 660 660 660 660 660 27 660 660 660 660 660 660 660 19 660 660 660 660 660 660 660 36 660 660 29 660 660 660 660 660 660 25 12 660 660 660 660 660 660 35 660 660 660 660 660 660 660 660 660 34 660 95 0 660 660 17
18 660 660 660 660 660 660 660 660 660 660 10 660 21 660 660 660 23 36 31 660 660 660 660 13 37 660 67 39 660 660 660 660 660 660 660 49 660 5 660 660 660 16 660 660 660 660 660 660 30 660 660 660 660 61 20 660 52 660 660 660 660 660 660 660 11 660 660 17 660 49 660 660 14 9 660 660 660 660 660 660 660 660 31 660 660 660 660 660 33 660 660 0 660 660
660 32 12 32 29 21 25 660 660 46 40 660 27 660 660 660 660 660 660 660 660 660 12 18 660 660 40 660 660 660 660 49 660 660 660 10 660 660 660 41 21 660 660 660 660 660 660 660 37 660 28 2 660 21 660 660 660 660 660 16 660 660 660 660 660 660 6 660 660 24 660 660 25 660 660 660 660 7 660 29 660 660 13 660 25 660 19 9 660 660 660 660 660 0 660
660 53 660 660 80 660 660 660 660 24 660 660 660 660 95 660 660 660 660 660 10 660 660 660 660 660 49 20 40 10 660 26 660 660 660 660 31 660 660 660 660 660 660 660 23 660 660 660 67 660 50 660 2 660 660 660 660 660 660 660 29 660 72 15 660 660 660 660 660 660 33 9 660 660 660 660 660 660 18 42 660 660 660 660 660 660 660 660 36 660 78 17 660 660 0
EOF
